(set-info :smt-lib-version 2.6)
(set-logic QF_S)
(set-info :source |
Generated by: Murphy Berzish, Mitja Kulczynski, Federico Mora, Florin Manea, Joel Day, Dirk Nowotka, Vijay Ganesh, Zhengyang Lu
Generated on: 2020-10-01
Description: Translated from a collection of real-world regex queries, AutomataArk, collected by Loris D’Antoni and Fang Wang: https://github.com/lorisdanto/automatark
Application: Evaluate solvers on real-world regex queries
Target solver: Z3str3RE, CVC4, OSTRICH, Z3seq, Z3str3, Z3-Trau
Publications: Berzish, M., Kulczynski, M., Mora, F., Manea, F., Day, J. D., Nowotka, D., & Ganesh, V. (2021, July). An SMT solver for regular expressions and linear arithmetic over string length. In CAV 2021.
|)
(set-info :license "https://creativecommons.org/licenses/by/4.0/")
(set-info :category "industrial")
(set-info :status unsat)

(declare-const X String)
(assert (str.in_re X (re.++ (str.to_re "/filename=") (re.* (re.comp (str.to_re "\u{a}"))) (str.to_re ".qcp/i\u{a}"))))
(assert (str.in_re X (re.++ (str.to_re "\u{a}") (re.opt (re.union (str.to_re "-") (str.to_re "+"))) (re.union (re.++ (re.+ (re.range "0" "9")) (re.opt (str.to_re ".")) (re.* (re.range "0" "9"))) (re.++ (re.* (re.range "0" "9")) (re.opt (str.to_re ".")) (re.+ (re.range "0" "9")))) (re.opt (re.++ (re.union (str.to_re "E") (str.to_re "e")) (re.opt (re.union (str.to_re "-") (str.to_re "+"))) (re.opt (re.range "0" "2")) ((_ re.loop 1 2) (re.range "0" "9")))))))
(assert (str.in_re X (re.++ (str.to_re "Strip-Player\u{1b}") (re.* re.allchar) (str.to_re "MyAgent") (re.* re.allchar) (str.to_re "/newsurfer4/\u{a}"))))
(assert (not (str.in_re X (re.++ (re.union (re.++ (re.union (re.range "a" "z") (str.to_re "-") (str.to_re "[") (str.to_re "d") (str.to_re "f") (str.to_re "i") (str.to_re "o") (str.to_re "q") (str.to_re "u") (str.to_re "w") (str.to_re "z")) (str.to_re "]")) (re.++ (re.union (re.range "A" "Z") (str.to_re "-") (str.to_re "[") (str.to_re "D") (str.to_re "F") (str.to_re "I") (str.to_re "O") (str.to_re "Q") (str.to_re "U") (str.to_re "W") (str.to_re "Z")) (str.to_re "]"))) (re.range "0" "9") (re.union (re.++ (re.union (re.range "a" "z") (str.to_re "-") (str.to_re "[") (str.to_re "d") (str.to_re "f") (str.to_re "i") (str.to_re "o") (str.to_re "q") (str.to_re "u")) (str.to_re "]")) (re.++ (re.union (re.range "A" "Z") (str.to_re "-") (str.to_re "[") (str.to_re "D") (str.to_re "F") (str.to_re "I") (str.to_re "O") (str.to_re "Q") (str.to_re "U")) (str.to_re "]"))) (re.opt (re.union (str.to_re " ") (str.to_re "\u{9}") (str.to_re "\u{a}") (str.to_re "\u{c}") (str.to_re "\u{d}"))) (re.range "0" "9") (re.union (re.++ (re.union (re.range "a" "z") (str.to_re "-") (str.to_re "[") (str.to_re "d") (str.to_re "f") (str.to_re "i") (str.to_re "o") (str.to_re "q") (str.to_re "u")) (str.to_re "]")) (re.++ (re.union (re.range "A" "Z") (str.to_re "-") (str.to_re "[") (str.to_re "D") (str.to_re "F") (str.to_re "I") (str.to_re "O") (str.to_re "Q") (str.to_re "U")) (str.to_re "]"))) (re.range "0" "9") (str.to_re "\u{a}")))))
(assert (str.in_re X (str.to_re "Subject:as.starware.com/dp/search?x=\u{a}")))
(check-sat)

(exit)
